circuit_heights=[3, 4, 5, 6, 7, 8, 9, 10, 11, 12, 13, 14, 22, 3, 19, 4];
circuit_widths= [3, 3, 3, 3, 3, 3, 3, 3, 3, 3, 3, 3, 3, 4, 4, 6];
max_height=150;
min_height=22;
n_circuits=16;
plate_width=22;
